CapLotSizing_PM/src/Instancias/NCHSHT/6i12p2m/NBA02.OUT
 CG ITER, OVMR, OVMRUB =           1   30232.8105469   30232.8105469
 CG ITER, OVMR, OVMRUB =           2   30232.8105469   30232.8105469
 CG ITER, OVMR, OVMRUB =           3   30232.8105469   30232.8105469
 CG ITER, OVMR, OVMRUB =           4   30232.8105469   30232.8105469
 CG ITER, OVMR, OVMRUB =           5   27146.2460938   30232.8105469
 CG ITER, OVMR, OVMRUB =           6   26539.5742188   30232.8105469
 CG ITER, OVMR, OVMRUB =           7   26142.8164062   30232.8105469
 CG ITER, OVMR, OVMRUB =           8   26136.9960938   30232.8105469
 CG ITER, OVMR, OVMRUB =           9   26169.7500000   28327.4062500
 CG ITER, OVMR, OVMRUB =          10   26201.7402344   28327.4062500
 CG ITER, OVMR, OVMRUB =          11   26216.9960938   28327.4062500
 CG ITER, OVMR, OVMRUB =          12   26219.3769531   28327.4062500
 CG ITER, OVMR, OVMRUB =          13   26211.7148438   28327.4062500
 CG ITER, OVMR, OVMRUB =          14   26205.6972656   28057.9121094
 CG ITER, OVMR, OVMRUB =          15   26207.5410156   28057.9121094
 CG ITER, OVMR, OVMRUB =          16   26207.5410156   28057.9121094
OVLB =   26207.5410156 OVLUB =   28057.9121094 TIME =       0.7200000
